21° run output:
{
    "Function": "kroB300.tsp",
    "Problem dimension": [
        243,
        272,
        82,
        131,
        10,
        5,
        212,
        50,
        20,
        133,
        197,
        36,
        100,
        188,
        52,
        61,
        96,
        59,
        164,
        176,
        42,
        177,
        60,
        46,
        276,
        191,
        92,
        269,
        225,
        185,
        22,
        146,
        23,
        77,
        102,
        43,
        237,
        285,
        260,
        53,
        209,
        45,
        94,
        218,
        48,
        278,
        123,
        79,
        290,
        101,
        247,
        8,
        255,
        296,
        12,
        54,
        28,
        275,
        129,
        111,
        281,
        128,
        41,
        210,
        145,
        189,
        193,
        64,
        154,
        292,
        299,
        38,
        9,
        295,
        159,
        254,
        294,
        249,
        277,
        241,
        135,
        187,
        114,
        122,
        70,
        81,
        155,
        217,
        211,
        271,
        233,
        44,
        238,
        140,
        220,
        200,
        11,
        141,
        110,
        51,
        270,
        16,
        186,
        152,
        228,
        284,
        71,
        157,
        167,
        198,
        29,
        158,
        119,
        201,
        87,
        3,
        63,
        161,
        172,
        142,
        252,
        56,
        205,
        13,
        258,
        138,
        33,
        283,
        208,
        280,
        143,
        35,
        232,
        32,
        112,
        21,
        57,
        178,
        55,
        99,
        227,
        132,
        125,
        173,
        72,
        298,
        37,
        83,
        124,
        230,
        121,
        293,
        68,
        117,
        6,
        287,
        26,
        231,
        151,
        4,
        253,
        134,
        18,
        263,
        27,
        39,
        107,
        34,
        93,
        282,
        223,
        175,
        264,
        199,
        279,
        115,
        195,
        73,
        182,
        90,
        7,
        89,
        235,
        17,
        98,
        84,
        149,
        162,
        256,
        85,
        242,
        203,
        250,
        179,
        74,
        58,
        116,
        183,
        246,
        169,
        69,
        239,
        66,
        163,
        291,
        170,
        262,
        109,
        150,
        215,
        236,
        147,
        15,
        1,
        40,
        91,
        226,
        221,
        88,
        234,
        127,
        62,
        194,
        120,
        130,
        259,
        240,
        80,
        267,
        265,
        105,
        204,
        244,
        229,
        273,
        251,
        104,
        297,
        286,
        118,
        144,
        108,
        139,
        219,
        47,
        49,
        168,
        25,
        180,
        196,
        86,
        184,
        190,
        106,
        24,
        224,
        103,
        153,
        160,
        97,
        245,
        19,
        266,
        261,
        113,
        78,
        166,
        0,
        165,
        76,
        274,
        288,
        65,
        95,
        136,
        30,
        192,
        148,
        268,
        75,
        137,
        31,
        171,
        174,
        202,
        222,
        14,
        181,
        156,
        207,
        67,
        214,
        2,
        213,
        248,
        257,
        126,
        216,
        206,
        289
    ],
    "Global Optimum": 0,
    "Algorithm": "Genetic algorithm",
    "Parameters": {
        "population": 30,
        "offspring": 30,
        "mutation probability": 0.0033333333333333335,
        "crossover probability": 0.9
    },
    "Fitness": 352698,
    "Solution": [
        243,
        272,
        82,
        131,
        10,
        5,
        212,
        50,
        20,
        133,
        197,
        36,
        100,
        188,
        52,
        61,
        96,
        59,
        164,
        176,
        42,
        177,
        60,
        46,
        276,
        191,
        92,
        269,
        225,
        185,
        22,
        146,
        23,
        77,
        102,
        43,
        237,
        285,
        260,
        53,
        209,
        45,
        94,
        218,
        48,
        278,
        123,
        79,
        290,
        101,
        247,
        8,
        255,
        296,
        12,
        54,
        28,
        275,
        129,
        111,
        281,
        128,
        41,
        210,
        145,
        189,
        193,
        64,
        154,
        292,
        299,
        38,
        9,
        295,
        159,
        254,
        294,
        249,
        277,
        241,
        135,
        187,
        114,
        122,
        70,
        81,
        155,
        217,
        211,
        271,
        233,
        44,
        238,
        140,
        220,
        200,
        11,
        141,
        110,
        51,
        270,
        16,
        186,
        152,
        228,
        284,
        71,
        157,
        167,
        198,
        29,
        158,
        119,
        201,
        87,
        3,
        63,
        161,
        172,
        142,
        252,
        56,
        205,
        13,
        258,
        138,
        33,
        283,
        208,
        280,
        143,
        35,
        232,
        32,
        112,
        21,
        57,
        178,
        55,
        99,
        227,
        132,
        125,
        173,
        72,
        298,
        37,
        83,
        124,
        230,
        121,
        293,
        68,
        117,
        6,
        287,
        26,
        231,
        151,
        4,
        253,
        134,
        18,
        263,
        27,
        39,
        107,
        34,
        93,
        282,
        223,
        175,
        264,
        199,
        279,
        115,
        195,
        73,
        182,
        90,
        7,
        89,
        235,
        17,
        98,
        84,
        149,
        162,
        256,
        85,
        242,
        203,
        250,
        179,
        74,
        58,
        116,
        183,
        246,
        169,
        69,
        239,
        66,
        163,
        291,
        170,
        262,
        109,
        150,
        215,
        236,
        147,
        15,
        1,
        40,
        91,
        226,
        221,
        88,
        234,
        127,
        62,
        194,
        120,
        130,
        259,
        240,
        80,
        267,
        265,
        105,
        204,
        244,
        229,
        273,
        251,
        104,
        297,
        286,
        118,
        144,
        108,
        139,
        219,
        47,
        49,
        168,
        25,
        180,
        196,
        86,
        184,
        190,
        106,
        24,
        224,
        103,
        153,
        160,
        97,
        245,
        19,
        266,
        261,
        113,
        78,
        166,
        0,
        165,
        76,
        274,
        288,
        65,
        95,
        136,
        30,
        192,
        148,
        268,
        75,
        137,
        31,
        171,
        174,
        202,
        222,
        14,
        181,
        156,
        207,
        67,
        214,
        2,
        213,
        248,
        257,
        126,
        216,
        206,
        289
    ],
    "Nb of functions evaluations": 50010,
    "Computational time in seconds": 146.5931751728058,
    "Stopping criterion in evaluations": 50000
}